number_of_cells = 28;
number_of_groups = 22;
groups = [
    {1, 2},
    {3, 4, 5},
    {6, 7}, {8, 9, 10},
    {11, 12}, {13, 14},
    {15, 16}, {17, 18},
    {19, 20, 21}, {22, 23},
    {24, 25, 26},
    {27, 28},
    {15, 19},
    {6, 11, 16, 20},
    {1, 3, 7, 12}, {21, 24},
    {2, 4}, {25, 27},
    {5, 8}, {17, 22, 26, 28},
    {9, 13, 18, 23},
    {10, 14}
];
sums = [
    6, 13, 11, 12, 8, 14, 9, 10, 20, 14, 12, 13,
    17, 15, 21, 4, 7, 16, 9, 22, 22, 9
];
